
Gurobi 13.0.0 (linux64) logging started Sat Jan 17 23:31:18 2026

Set parameter LogFile to value "../experiments/network-n_60_s_0_rp_0-app_set-id_68_27_apps/submip_40_epr1_model_gurobi.log"
Set parameter TimeLimit to value 7.4190227246598806e+02
Gurobi Optimizer version 13.0.0 build v13.0.0rc1 (linux64 - "Ubuntu 24.04.3 LTS")

CPU model: Intel(R) Core(TM) Ultra 7 165H, instruction set [SSE2|AVX|AVX2]
Thread count: 22 physical cores, 22 logical processors, using up to 22 threads

Non-default parameters:
TimeLimit  7.4190227246598806e+02
LogToConsole  0

Academic license 2539022 - for non-commercial use only - registered to al___@studenti.unimi.it
Optimize a model with 55923 rows, 10560 columns and 126538 nonzeros (Min)
Model fingerprint: 0x15de2e31
Model has 10560 linear objective coefficients
Model has 200 quadratic constraints
Variable types: 0 continuous, 10560 integer (10560 binary)
Coefficient statistics:
  Matrix range     [1e+00, 9e+02]
  QMatrix range    [5e+01, 2e+02]
  Objective range  [1e+01, 2e+02]
  Bounds range     [1e+00, 1e+00]
  RHS range        [1e+00, 1e+09]
  QRHS range       [1e+02, 6e+02]
Presolve removed 55278 rows and 8452 columns
Presolve time: 0.07s
Presolved: 14465 rows, 15734 columns, 90106 nonzeros
Variable types: 0 continuous, 15734 integer (15734 binary)
Performing another presolve...
Presolve removed 932 rows and 1215 columns
Presolve time: 0.28s

Root relaxation: objective 7.225658e+03, 3492 iterations, 0.37 seconds (0.54 work units)

    Nodes    |    Current Node    |     Objective Bounds      |     Work
 Expl Unexpl |  Obj  Depth IntInf | Incumbent    BestBd   Gap | It/Node Time

     0     0 7225.65799    0  217          - 7225.65799      -     -    0s
     0     0 7226.55916    0  221          - 7226.55916      -     -    0s
     0     0 7436.51854    0  272          - 7436.51854      -     -    2s
     0     0 7437.83322    0  276          - 7437.83322      -     -    2s
     0     0 7602.02404    0  270          - 7602.02404      -     -    3s
     0     0 7628.14692    0  283          - 7628.14692      -     -    3s
     0     0 7629.42059    0  289          - 7629.42059      -     -    3s
     0     0 7827.81813    0  296          - 7827.81813      -     -    4s
     0     0 7984.96814    0  317          - 7984.96814      -     -    5s
     0     0 8088.71322    0  347          - 8088.71322      -     -    6s
     0     0 8103.65676    0  354          - 8103.65676      -     -    6s
     0     0 8104.63227    0  364          - 8104.63227      -     -    6s
     0     0 infeasible    0               - infeasible      -     -    7s

Cutting planes:
  Gomory: 8
  Lift-and-project: 5
  Cover: 76
  Implied bound: 1
  Clique: 43
  MIR: 74
  Knapsack: 33
  StrongCG: 53
  GUB cover: 11
  Zero half: 6
  RLT: 132
  Relax-and-lift: 25
  BQP: 27

Explored 1 nodes (13304 simplex iterations) in 7.68 seconds (7.34 work units)
Thread count was 22 (of 22 available processors)

Solution count 0

Model is infeasible
Best objective -, best bound -, gap -

User-callback calls 925, time in user-callback 0.00 sec
